
Gurobi 10.0.1 (linux64, gurobi_cl) logging started Thu Mar  9 16:30:29 2023

Set parameter Username
Set parameter LogFile to value "gurobi.log"
Academic license - for non-commercial use only - expires 2024-03-03
Using license file /home/users/a/agma/gurobi.lic

Gurobi 10.0.1 (linux64, gurobi_cl) logging started Thu Mar  9 16:30:34 2023

Set parameter Username
Set parameter LogFile to value "gurobi.log"
Academic license - for non-commercial use only - expires 2024-03-03
Using license file /home/users/a/agma/gurobi.lic

Gurobi 10.0.1 (linux64, gurobi_cl) logging started Sat Mar 11 00:51:04 2023

Set parameter Username
Set parameter LogFile to value "gurobi.log"
Academic license - for non-commercial use only - expires 2024-03-03
Using license file /home/users/a/agma/gurobi.lic

Gurobi 10.0.1 (linux64, gurobi_cl) logging started Sat Mar 11 00:52:27 2023

Set parameter Username
Set parameter LogFile to value "gurobi.log"
Academic license - for non-commercial use only - expires 2024-03-03
Using license file /home/users/a/agma/gurobi.lic

Gurobi 10.0.1 (linux64, gurobi_cl) logging started Sat Mar 11 00:55:19 2023

Set parameter Username
Set parameter LogFile to value "gurobi.log"
Academic license - for non-commercial use only - expires 2024-03-03
Using license file /home/users/a/agma/gurobi.lic

Gurobi 10.0.1 (linux64, gurobi_cl) logging started Sat Mar 11 00:55:43 2023

Set parameter Username
Set parameter LogFile to value "gurobi.log"
Academic license - for non-commercial use only - expires 2024-03-03
Using license file /home/users/a/agma/gurobi.lic

Gurobi 10.0.1 (linux64, gurobi_cl) logging started Sat Mar 11 00:56:33 2023

Set parameter Username
Set parameter LogFile to value "gurobi.log"
Academic license - for non-commercial use only - expires 2024-03-03
Using license file /home/users/a/agma/gurobi.lic

Gurobi 10.0.1 (linux64, gurobi_cl) logging started Sat Mar 11 01:00:57 2023

Set parameter Username
Set parameter LogFile to value "gurobi.log"
Academic license - for non-commercial use only - expires 2024-03-03
Using license file /home/users/a/agma/gurobi.lic

Gurobi 10.0.1 (linux64, gurobi_cl) logging started Sat Mar 11 20:26:04 2023

Set parameter Username
Set parameter LogFile to value "gurobi.log"
Academic license - for non-commercial use only - expires 2024-03-03
Using license file /home/users/a/agma/gurobi.lic

Gurobi 10.0.1 (linux64, gurobi_cl) logging started Sat Mar 11 20:27:41 2023

Set parameter Username
Set parameter LogFile to value "gurobi.log"
Academic license - for non-commercial use only - expires 2024-03-03
Using license file /home/users/a/agma/gurobi.lic

Gurobi 10.0.1 (linux64, gurobi_cl) logging started Sat Mar 11 20:27:55 2023

Set parameter Username
Set parameter LogFile to value "gurobi.log"
Academic license - for non-commercial use only - expires 2024-03-03
Using license file /home/users/a/agma/gurobi.lic

Gurobi 10.0.1 (linux64, gurobi_cl) logging started Sat Mar 11 21:16:00 2023

Set parameter Username
Set parameter LogFile to value "gurobi.log"
Academic license - for non-commercial use only - expires 2024-03-03
Using license file /home/users/a/agma/gurobi.lic

Gurobi 10.0.1 (linux64, gurobi_cl) logging started Sat Mar 11 21:17:41 2023

Set parameter Username
Set parameter LogFile to value "gurobi.log"
Academic license - for non-commercial use only - expires 2024-03-03
Using license file /home/users/a/agma/gurobi.lic

Gurobi 10.0.1 (linux64, gurobi_cl) logging started Sat Mar 11 21:17:46 2023

Set parameter Username
Set parameter LogFile to value "gurobi.log"
Academic license - for non-commercial use only - expires 2024-03-03
Using license file /home/users/a/agma/gurobi.lic
